     Program PWSCF v.6.8 starts on 17Oct2022 at 22:33: 3

     K-points division:     npool     =       8
     R & G space division:  proc/nbgrp/npool/nimage =      16

     Reading input from aiida.in

     Current dimensions of program PWSCF are:
     Max number of different atomic species (ntypx) = 10
     Max number of k-points (npk) =  40000
     Max angular momentum in pseudopotentials (lmaxx) =  4
     Message from routine setup:
     using ibrav=0 with symmetry is DISCOURAGED, use correct ibrav instead

     Using Slab Decomposition

     bravais-lattice index     =            0
     lattice parameter (alat)  =      10.6603  a.u.
     unit-cell volume          =    1289.0923 (a.u.)^3
     number of atoms/cell      =           10
     number of atomic types    =            3
     number of electrons       =        94.00
     number of Kohn-Sham states=           56
     kinetic-energy cutoff     =      35.0000  Ry
     charge density cutoff     =     280.0000  Ry
     scf convergence threshold =      2.0E-09
     mixing beta               =       0.4000
     number of iterations used =            8  plain     mixing
     Exchange-correlation= SLA  PW   PSX  PSC
                           (   1   4  10   8   0   0   0)

     celldm(1)=  10.660297  celldm(2)=   0.000000  celldm(3)=   0.000000
     celldm(4)=   0.000000  celldm(5)=   0.000000  celldm(6)=   0.000000

     crystal axes: (cart. coord. in units of alat)
               a(1) = (   0.929138   0.369730  -0.001677 )
               a(2) = (  -0.929138   0.369730   0.001677 )
               a(3) = (  -0.848654  -0.000000   1.550281 )

     reciprocal axes: (cart. coord. in units 2 pi/alat)
               b(1) = (  0.538666  1.352337  0.294876 )
               b(2) = ( -0.538666  1.352337 -0.294876 )
               b(3) = (  0.001166  0.000000  0.645683 )

     PseudoPot. # 1 for Rh read from file:
     ./pseudo/Rh_ONCV_PBEsol-1.0.upf
     MD5 check sum: ec594c1794ddd2e1e7b303db34a9ee92
     Pseudo is Norm-conserving, Zval = 17.0
     Generated using ONCVPSP code by D. R. Hamann
     Using radial grid of 1426 points,  6 beta functions with:
                l(1) =   0
                l(2) =   0
                l(3) =   1
                l(4) =   1
                l(5) =   2
                l(6) =   2

     PseudoPot. # 2 for Si read from file:
     ./pseudo/Si.pbesol-n-rrkjus_psl.1.0.0.UPF
     MD5 check sum: 0f72aaed442cfea083ff16d3bfdace30
     Pseudo is Ultrasoft + core correction, Zval =  4.0
     Generated using "atomic" code by A. Dal Corso  v.6.0 svn rev. 13079
     Using radial grid of 1141 points,  6 beta functions with:
                l(1) =   0
                l(2) =   0
                l(3) =   1
                l(4) =   1
                l(5) =   2
                l(6) =   2
     Q(r) pseudized with 0 coefficients

     PseudoPot. # 3 for Y  read from file:
     ./pseudo/y_pbesol_v1.4.uspp.F.UPF
     MD5 check sum: dac24993bfd4491f22c7b9129ad9e93d
     Pseudo is Ultrasoft + core correction, Zval = 11.0
     Generated by new atomic code, or converted to UPF format
     Using radial grid of  885 points,  6 beta functions with:
                l(1) =   0
                l(2) =   0
                l(3) =   1
                l(4) =   1
                l(5) =   2
                l(6) =   2
     Q(r) pseudized with  8 coefficients,  rinner =    1.200   1.200   1.200
                                                       1.200   1.200

     atomic species   valence    mass     pseudopotential
        Rh            17.00   102.90550     Rh( 1.00)
        Si             4.00    28.08550     Si( 1.00)
        Y             11.00    88.90585     Y ( 1.00)

      4 Sym. Ops., with inversion, found

                                    s                        frac. trans.

      isym =  1     identity

 cryst.   s( 1) = (     1          0          0      )
                  (     0          1          0      )
                  (     0          0          1      )

 cart.    s( 1) = (  1.0000000 -0.0000000  0.0000000 )
                  (  0.0000000  1.0000000  0.0000000 )
                  ( -0.0000000  0.0000000  1.0000000 )

      isym =  2     180 deg rotation - cart. axis [0,1,0]

[...]

      isym =  3     inversion

[...]

      isym =  4     inv. 180 deg rotation - cart. axis [0,1,0]

 cryst.   s( 4) = (     0         -1          0      )
                  (    -1          0          0      )
                  (     0          0          1      )

 cart.    s( 4) = (  1.0000000 -0.0000000  0.0000000 )
                  (  0.0000000 -1.0000000  0.0000000 )
                  ( -0.0000000  0.0000000  1.0000000 )

   Cartesian axes

     site n.     atom                  positions (alat units)
         1           Y   tau(   1) = (  -0.5679153  -0.0000000   1.0478984  )
         2           Y   tau(   2) = (   1.5775361  -0.0000000   0.4990279  )
         3           Y   tau(   3) = (  -0.1714263   0.3697303   1.3818441  )
         4           Y   tau(   4) = (   1.1810471   0.3697303   0.1650823  )
         5           Si  tau(   5) = (  -0.2168348   0.3697303   0.8764615  )
         6           Si  tau(   6) = (   1.2264556   0.3697303   0.6704648  )
         7           Si  tau(   7) = (  -0.7259591   0.3697303   1.3613332  )
         8           Si  tau(   8) = (   1.7355799   0.3697303   0.1855931  )
         9           Rh  tau(   9) = (   1.0309116   0.0000000   0.5795744  )
        10           Rh  tau(  10) = (  -0.0212908  -0.0000000   0.9673519  )

   Crystallographic axes

     site n.     atom                  positions (cryst. coord.)
         1           Y   tau(   1) = (  0.0030839 -0.0030839  0.6759478  )
         2           Y   tau(   2) = (  0.9969161 -0.9969161  0.3240522  )
         3           Y   tau(   3) = (  0.8151316  0.1848684  0.8920328  )
         4           Y   tau(   4) = (  1.1848684 -0.1848684  0.1079672  )
         5           Si  tau(   5) = (  0.6416463  0.3583537  0.5656632  )
         6           Si  tau(   6) = (  1.3583537 -0.3583537  0.4343368  )
         7           Si  tau(   7) = (  0.5103756  0.4896244  0.8781429  )
         8           Si  tau(   8) = (  1.4896244 -0.4896244  0.1218571  )
         9           Rh  tau(   9) = (  0.7262195 -0.7262195  0.3754226  )
        10           Rh  tau(  10) = (  0.2737805 -0.2737805  0.6245774  )

     number of k points=    47  Marzari-Vanderbilt smearing, width (Ry)=  0.0100
                       cart. coord. in units 2pi/alat
        k(    1) = (   0.0000000   0.0000000   0.0000000), wk =   0.0138889
        k(    2) = (   0.0002914   0.0000000   0.1614206), wk =   0.0277778
        k(    3) = (  -0.0005828  -0.0000000  -0.3228413), wk =   0.0138889
        k(    4) = (  -0.0897776   0.2253895  -0.0491461), wk =   0.0555556
        k(    5) = (  -0.0894862   0.2253895   0.1122746), wk =   0.0555556
        k(    6) = (  -0.0903604   0.2253895  -0.3719873), wk =   0.0555556
        k(    7) = (  -0.0900690   0.2253895  -0.2105667), wk =   0.0555556
        k(    8) = (  -0.1795552   0.4507790  -0.0982921), wk =   0.0555556
        k(    9) = (  -0.1792639   0.4507790   0.0631285), wk =   0.0555556
        k(   10) = (  -0.1801380   0.4507790  -0.4211334), wk =   0.0555556
        k(   11) = (  -0.1798466   0.4507790  -0.2597127), wk =   0.0555556
        k(   12) = (   0.2693328  -0.6761685   0.1474382), wk =   0.0277778
        k(   13) = (   0.2696242  -0.6761685   0.3088588), wk =   0.0555556
        k(   14) = (   0.2687501  -0.6761685  -0.1754031), wk =   0.0277778
        k(   15) = (   0.0000000   0.4507790  -0.0000000), wk =   0.0277778
        k(   16) = (   0.0002914   0.4507790   0.1614206), wk =   0.0555556
        k(   17) = (  -0.0005828   0.4507790  -0.3228413), wk =   0.0277778
        k(   18) = (  -0.0897776   0.6761685  -0.0491461), wk =   0.0555556
        k(   19) = (  -0.0894862   0.6761685   0.1122746), wk =   0.0555556
        k(   20) = (  -0.0903604   0.6761685  -0.3719873), wk =   0.0555556
        k(   21) = (  -0.0900690   0.6761685  -0.2105667), wk =   0.0555556
        k(   22) = (   0.3591105  -0.4507790   0.1965842), wk =   0.0555556
        k(   23) = (   0.3594018  -0.4507790   0.3580048), wk =   0.0555556
        k(   24) = (   0.3585277  -0.4507790  -0.1262571), wk =   0.0555556
        k(   25) = (   0.3588191  -0.4507790   0.0351636), wk =   0.0555556
        k(   26) = (   0.2693328  -0.2253895   0.1474382), wk =   0.0555556
        k(   27) = (   0.2696242  -0.2253895   0.3088588), wk =   0.0555556
        k(   28) = (   0.2687501  -0.2253895  -0.1754031), wk =   0.0555556
        k(   29) = (   0.2690415  -0.2253895  -0.0139825), wk =   0.0555556
        k(   30) = (   0.1795552   0.0000000   0.0982921), wk =   0.0277778
        k(   31) = (   0.1798466   0.0000000   0.2597127), wk =   0.0277778
        k(   32) = (   0.1789725   0.0000000  -0.2245492), wk =   0.0277778
        k(   33) = (   0.1792639   0.0000000  -0.0631285), wk =   0.0277778
        k(   34) = (   0.0000000   0.9015580  -0.0000000), wk =   0.0277778
        k(   35) = (   0.0002914   0.9015580   0.1614206), wk =   0.0555556
        k(   36) = (  -0.0005828   0.9015580  -0.3228413), wk =   0.0277778
        k(   37) = (   0.4488881  -0.2253895   0.2457303), wk =   0.0555556
        k(   38) = (   0.4491795  -0.2253895   0.4071509), wk =   0.0555556
        k(   39) = (   0.4483053  -0.2253895  -0.0771110), wk =   0.0555556
        k(   40) = (   0.4485967  -0.2253895   0.0843096), wk =   0.0555556
        k(   41) = (   0.3591105  -0.0000000   0.1965842), wk =   0.0277778
        k(   42) = (   0.3594018  -0.0000000   0.3580048), wk =   0.0277778
        k(   43) = (   0.3585277  -0.0000000  -0.1262571), wk =   0.0277778
        k(   44) = (   0.3588191  -0.0000000   0.0351636), wk =   0.0277778
        k(   45) = (   0.0000000  -1.3523371   0.0000000), wk =   0.0138889
        k(   46) = (   0.0002914  -1.3523371   0.1614206), wk =   0.0277778
        k(   47) = (  -0.0005828  -1.3523371  -0.3228413), wk =   0.0138889

                       cryst. coord.
        k(    1) = (   0.0000000   0.0000000   0.0000000), wk =   0.0138889
        k(    2) = (   0.0000000  -0.0000000   0.2500000), wk =   0.0277778
        k(    3) = (  -0.0000000   0.0000000  -0.5000000), wk =   0.0138889
        k(    4) = (  -0.0000000   0.1666667   0.0000000), wk =   0.0555556
        k(    5) = (  -0.0000000   0.1666667   0.2500000), wk =   0.0555556
        k(    6) = (   0.0000000   0.1666667  -0.5000000), wk =   0.0555556
        k(    7) = (   0.0000000   0.1666667  -0.2500000), wk =   0.0555556
        k(    8) = (  -0.0000000   0.3333333   0.0000000), wk =   0.0555556
        k(    9) = (   0.0000000   0.3333333   0.2500000), wk =   0.0555556
        k(   10) = (   0.0000000   0.3333333  -0.5000000), wk =   0.0555556
        k(   11) = (  -0.0000000   0.3333333  -0.2500000), wk =   0.0555556
        k(   12) = (  -0.0000000  -0.5000000   0.0000000), wk =   0.0277778
        k(   13) = (  -0.0000000  -0.5000000   0.2500000), wk =   0.0555556
        k(   14) = (  -0.0000000  -0.5000000  -0.5000000), wk =   0.0277778
        k(   15) = (   0.1666667   0.1666667  -0.0000000), wk =   0.0277778
        k(   16) = (   0.1666667   0.1666667   0.2500000), wk =   0.0555556
        k(   17) = (   0.1666667   0.1666667  -0.5000000), wk =   0.0277778
        k(   18) = (   0.1666667   0.3333333   0.0000000), wk =   0.0555556
        k(   19) = (   0.1666667   0.3333333   0.2500000), wk =   0.0555556
        k(   20) = (   0.1666667   0.3333333  -0.5000000), wk =   0.0555556
        k(   21) = (   0.1666667   0.3333333  -0.2500000), wk =   0.0555556
        k(   22) = (   0.1666667  -0.5000000  -0.0000000), wk =   0.0555556
        k(   23) = (   0.1666667  -0.5000000   0.2500000), wk =   0.0555556
        k(   24) = (   0.1666667  -0.5000000  -0.5000000), wk =   0.0555556
        k(   25) = (   0.1666667  -0.5000000  -0.2500000), wk =   0.0555556
        k(   26) = (   0.1666667  -0.3333333   0.0000000), wk =   0.0555556
        k(   27) = (   0.1666667  -0.3333333   0.2500000), wk =   0.0555556
        k(   28) = (   0.1666667  -0.3333333  -0.5000000), wk =   0.0555556
        k(   29) = (   0.1666667  -0.3333333  -0.2500000), wk =   0.0555556
        k(   30) = (   0.1666667  -0.1666667  -0.0000000), wk =   0.0277778
        k(   31) = (   0.1666667  -0.1666667   0.2500000), wk =   0.0277778
        k(   32) = (   0.1666667  -0.1666667  -0.5000000), wk =   0.0277778
        k(   33) = (   0.1666667  -0.1666667  -0.2500000), wk =   0.0277778
        k(   34) = (   0.3333333   0.3333333  -0.0000000), wk =   0.0277778
        k(   35) = (   0.3333333   0.3333333   0.2500000), wk =   0.0555556
        k(   36) = (   0.3333333   0.3333333  -0.5000000), wk =   0.0277778
        k(   37) = (   0.3333333  -0.5000000   0.0000000), wk =   0.0555556
        k(   38) = (   0.3333333  -0.5000000   0.2500000), wk =   0.0555556
        k(   39) = (   0.3333333  -0.5000000  -0.5000000), wk =   0.0555556
        k(   40) = (   0.3333333  -0.5000000  -0.2500000), wk =   0.0555556
        k(   41) = (   0.3333333  -0.3333333  -0.0000000), wk =   0.0277778
        k(   42) = (   0.3333333  -0.3333333   0.2500000), wk =   0.0277778
        k(   43) = (   0.3333333  -0.3333333  -0.5000000), wk =   0.0277778
        k(   44) = (   0.3333333  -0.3333333  -0.2500000), wk =   0.0277778
        k(   45) = (  -0.5000000  -0.5000000   0.0000000), wk =   0.0138889
        k(   46) = (  -0.5000000  -0.5000000   0.2500000), wk =   0.0277778
        k(   47) = (  -0.5000000  -0.5000000  -0.5000000), wk =   0.0138889

     Initial potential from superposition of free atoms

     starting charge   93.98055, renormalised to   94.00000
     Starting wfcs are   88 randomized atomic wfcs

     Self-consistent Calculation

     iteration #  1     ecut=    35.00 Ry     beta= 0.40
     Davidson diagonalization with overlap

     ethr =  1.00E-02,  avg # of iterations =  2.1

     total energy              =    -849.62733136 Ry
     estimated scf accuracy    <       1.83941861 Ry

[...]

     c_bands:  1 eigenvalues not converged
     ethr =  1.34E-05,  avg # of iterations =  9.6

[...]

     total energy              =    -850.51216612 Ry
     estimated scf accuracy    <          6.9E-09 Ry

     iteration # 13     ecut=    35.00 Ry     beta= 0.40
     Davidson diagonalization with overlap

     ethr =  7.33E-12,  avg # of iterations =  1.9

     End of self-consistent calculation

          k = 0.0000 0.0000 0.0000 (  4467 PWs)   bands (ev):

   -65.5573 -65.5513 -33.5160 -33.5108 -33.4882 -33.4721 -33.4498 -33.4395
   -29.1508 -29.1121 -28.9817 -28.9643  -9.4247  -9.2681  -9.2444  -9.2337
    -9.2224  -9.2058  -9.1975  -9.0702  -9.0385  -9.0347  -8.9887  -8.9731
     2.9399   4.2570   5.3831   6.0481   7.7767   8.4060   8.8389   9.0687
     9.3280   9.6866  10.0192  10.0270  10.1011  10.5197  10.7365  11.1236
    11.3226  11.3642  11.6549  11.7850  12.0911  12.1194  12.7566  12.9647
    13.1206  13.1874  13.4945  15.3062  15.3830  15.7157  16.0359  16.1107

     occupation numbers
     1.0000   1.0000   1.0000   1.0000   1.0000   1.0000   1.0000   1.0000
     1.0000   1.0000   1.0000   1.0000   1.0000   1.0000   1.0000   1.0000
     1.0000   1.0000   1.0000   1.0000   1.0000   1.0000   1.0000   1.0000
     1.0000   1.0000   1.0000   1.0000   1.0000   1.0000   1.0000   1.0000
     1.0000   1.0000   1.0000   1.0000   1.0000   1.0000   1.0000   1.0000
     1.0000   1.0000   1.0000   1.0000   1.0000   1.0000   1.0588   0.1765
     0.0032   0.0003   0.0000   0.0000   0.0000   0.0000   0.0000   0.0000

[...]

          k =-0.0006-0.0000-0.3228 (  4518 PWs)   bands (ev):

[...]

          k = 0.0003-1.3523 0.1614 (  4508 PWs)   bands (ev):

[...]

          k =-0.0006-1.3523-0.3228 (  4506 PWs)   bands (ev):

[...]

     occupation numbers
     1.0000   1.0000   1.0000   1.0000   1.0000   1.0000   1.0000   1.0000
     1.0000   1.0000   1.0000   1.0000   1.0000   1.0000   1.0000   1.0000
     1.0000   1.0000   1.0000   1.0000   1.0000   1.0000   1.0000   1.0000
     1.0000   1.0000   1.0000   1.0000   1.0000   1.0000   1.0000   1.0000
     1.0000   1.0000   1.0000   1.0000   1.0000   1.0000   1.0000   1.0000
     1.0000   1.0000   1.0000   1.0000   1.0000   1.0519   0.5005   0.0000
     0.0000   0.0000   0.0000   0.0000   0.0000   0.0000   0.0000   0.0000

     the Fermi energy is    12.9105 ev

!    total energy              =    -850.51216612 Ry
     estimated scf accuracy    <          5.9E-10 Ry
     smearing contrib. (-TS)   =      -0.00060825 Ry
     internal energy E=F+TS    =    -850.51155787 Ry

     The total energy is F=E-TS. E is the sum of the following terms:
     one-electron contribution =    -348.66593993 Ry
     hartree contribution      =     213.55383393 Ry
     xc contribution           =    -177.41137640 Ry
     ewald contribution        =    -537.98807547 Ry

     convergence has been achieved in  13 iterations

     Forces acting on atoms (cartesian axes, Ry/au):

     atom    1 type  3   force =     0.00020088   -0.00000000   -0.00058316
     atom    2 type  3   force =    -0.00020088    0.00000000    0.00058316
     atom    3 type  3   force =     0.00001716   -0.00000000    0.00002996
     atom    4 type  3   force =    -0.00001716    0.00000000   -0.00002996
     atom    5 type  2   force =     0.00027434   -0.00000000   -0.00035127
     atom    6 type  2   force =    -0.00027434    0.00000000    0.00035127
     atom    7 type  2   force =    -0.00012738    0.00000000    0.00019801
     atom    8 type  2   force =     0.00012738   -0.00000000   -0.00019801
     atom    9 type  1   force =     0.00088037   -0.00000000   -0.00034478
     atom   10 type  1   force =    -0.00088037    0.00000000    0.00034478
     The non-local contrib.  to forces
     atom    1 type  3   force =    -0.00571248    0.00000000    0.00565400
     atom    2 type  3   force =     0.00571248   -0.00000000   -0.00565400
     atom    3 type  3   force =     0.00823814   -0.00000000    0.00221102
     atom    4 type  3   force =    -0.00823814    0.00000000   -0.00221102
     atom    5 type  2   force =    -0.02846864    0.00000000   -0.04958960
     atom    6 type  2   force =     0.02846864   -0.00000000    0.04958960
     atom    7 type  2   force =    -0.04902850    0.00000000    0.03787657
     atom    8 type  2   force =     0.04902850   -0.00000000   -0.03787657
     atom    9 type  1   force =    -0.02953656    0.00000000    0.02308220
     atom   10 type  1   force =     0.02953656   -0.00000000   -0.02308220
     The ionic contribution  to forces
     atom    1 type  3   force =     5.10717451   -0.00000000   13.71124045
     atom    2 type  3   force =    -5.10717451    0.00000000  -13.71124045
     atom    3 type  3   force =    -3.42685251   -0.00000000   10.06796728
     atom    4 type  3   force =     3.42685251    0.00000000  -10.06796728
     atom    5 type  2   force =    -5.19086443    0.00000000    2.10738953
     atom    6 type  2   force =     5.19086443   -0.00000000   -2.10738953
     atom    7 type  2   force =     1.77126126   -0.00000000    4.68398926
     atom    8 type  2   force =    -1.77126126    0.00000000   -4.68398925
     atom    9 type  1   force =     2.98541414    0.00000000  -18.50197790
     atom   10 type  1   force =    -2.98541414   -0.00000000   18.50197790
     The local contribution  to forces
     atom    1 type  3   force =    -5.10278515    0.00000000  -13.71804147
     atom    2 type  3   force =     5.10278515   -0.00000000   13.71804148
     atom    3 type  3   force =     3.42048977   -0.00000000  -10.07057297
     atom    4 type  3   force =    -3.42048977   -0.00000000   10.07057298
     atom    5 type  2   force =     5.21368674   -0.00000000   -2.06331252
     atom    6 type  2   force =    -5.21368674   -0.00000000    2.06331252
     atom    7 type  2   force =    -1.72667291    0.00000000   -4.71710568
     atom    8 type  2   force =     1.72667291    0.00000000    4.71710568
     atom    9 type  1   force =    -2.95499013   -0.00000000   18.47857991
     atom   10 type  1   force =     2.95499013   -0.00000000  -18.47857988
     The core correction contribution to forces
     atom    1 type  3   force =     0.00152966    0.00000000    0.00051712
     atom    2 type  3   force =    -0.00152966    0.00000000   -0.00051712
     atom    3 type  3   force =    -0.00184385    0.00000000    0.00039701
     atom    4 type  3   force =     0.00184385   -0.00000000   -0.00039701
     atom    5 type  2   force =     0.00591284   -0.00000000    0.00515560
     atom    6 type  2   force =    -0.00591284    0.00000000   -0.00515560
     atom    7 type  2   force =     0.00431010    0.00000000   -0.00456826
     atom    8 type  2   force =    -0.00431010   -0.00000000    0.00456826
     atom    9 type  1   force =     0.00000000    0.00000000    0.00000000
     atom   10 type  1   force =     0.00000000    0.00000000    0.00000000
     The Hubbard contrib.    to forces
     atom    1 type  3   force =     0.00000000    0.00000000    0.00000000
     atom    2 type  3   force =     0.00000000    0.00000000    0.00000000
     atom    3 type  3   force =     0.00000000    0.00000000    0.00000000
     atom    4 type  3   force =     0.00000000    0.00000000    0.00000000
     atom    5 type  2   force =     0.00000000    0.00000000    0.00000000
     atom    6 type  2   force =     0.00000000    0.00000000    0.00000000
     atom    7 type  2   force =     0.00000000    0.00000000    0.00000000
     atom    8 type  2   force =     0.00000000    0.00000000    0.00000000
     atom    9 type  1   force =     0.00000000    0.00000000    0.00000000
     atom   10 type  1   force =     0.00000000    0.00000000    0.00000000
     The SCF correction term to forces
     atom    1 type  3   force =    -0.00000566    0.00000000    0.00004674
     atom    2 type  3   force =     0.00000566   -0.00000000   -0.00004674
     atom    3 type  3   force =    -0.00001439    0.00000000    0.00002763
     atom    4 type  3   force =     0.00001439   -0.00000000   -0.00002763
     atom    5 type  2   force =     0.00000782    0.00000000    0.00000571
     atom    6 type  2   force =    -0.00000782    0.00000000   -0.00000571
     atom    7 type  2   force =     0.00000267    0.00000000    0.00000614
     atom    8 type  2   force =    -0.00000267   -0.00000000   -0.00000614
     atom    9 type  1   force =    -0.00000709   -0.00000000   -0.00002896
     atom   10 type  1   force =     0.00000709    0.00000000    0.00002896

     Total force =     0.001749     Total SCF correction =     0.000092

     Computing stress (Cartesian axis) and pressure

          total   stress  (Ry/bohr**3)                   (kbar)     P=        0.01
  -0.00000215   0.00000000  -0.00000331           -0.32        0.00       -0.49
   0.00000000   0.00000622   0.00000000            0.00        0.91        0.00
  -0.00000331   0.00000000  -0.00000378           -0.49        0.00       -0.56

     kinetic stress (kbar)  18039.02     -0.00     33.74
                               -0.00  18004.76     -0.00
                               33.74     -0.00  18019.01

     local   stress (kbar) -11087.11     -0.00    249.63
                               -0.00 -18969.12      0.00
                              249.63      0.00   -215.08

     nonloc. stress (kbar)   8591.44     -0.00     -1.07
                               -0.00   8632.20      0.00
                               -1.07      0.00   8612.43

     hartree stress (kbar)   8724.59     -0.00   -227.93
                               -0.00  12262.42     -0.00
                             -227.93     -0.00   3382.73

     exc-cor stress (kbar)   5466.47      0.00      0.36
                                0.00   5467.01      0.00
                                0.36      0.00   5466.39

     corecor stress (kbar)  -9666.71      0.00      0.18
                                0.00  -9670.67     -0.00
                                0.18     -0.00  -9667.11

     ewald   stress (kbar) -20068.02     -0.00    -55.41
                               -0.00 -15725.69     -0.00
                              -55.41     -0.00 -25598.92

     hubbard stress (kbar)      0.00      0.00      0.00
                                0.00      0.00      0.00
                                0.00      0.00      0.00

     DFT-D   stress (kbar)      0.00      0.00      0.00
                                0.00      0.00      0.00
                                0.00      0.00      0.00

     XDM     stress (kbar)      0.00      0.00      0.00
                                0.00      0.00      0.00
                                0.00      0.00      0.00

     dft-nl  stress (kbar)      0.00      0.00      0.00
                                0.00      0.00      0.00
                                0.00      0.00      0.00

     TS-vdW  stress (kbar)      0.00      0.00      0.00
                                0.00      0.00      0.00
                                0.00      0.00      0.00

[...]

                                0.00      0.00      0.00

     Writing all to output data dir ./out/aiida.save/

     General routines

     Parallel routines

   This run was terminated on:  22:33:14  17Oct2022

   JOB DONE.